c generated by sgen
p cnf 109 228
-2 -3 -4 0
-1 -3 -4 0
-1 -2 -4 0
-1 -2 -3 0
-6 -7 -8 0
-5 -7 -8 0
-5 -6 -8 0
-5 -6 -7 0
-10 -11 -12 0
-9 -11 -12 0
-9 -10 -12 0
-9 -10 -11 0
-14 -15 -16 0
-13 -15 -16 0
-13 -14 -16 0
-13 -14 -15 0
-18 -19 -20 0
-17 -19 -20 0
-17 -18 -20 0
-17 -18 -19 0
-22 -23 -24 0
-21 -23 -24 0
-21 -22 -24 0
-21 -22 -23 0
-26 -27 -28 0
-25 -27 -28 0
-25 -26 -28 0
-25 -26 -27 0
-30 -31 -32 0
-29 -31 -32 0
-29 -30 -32 0
-29 -30 -31 0
-34 -35 -36 0
-33 -35 -36 0
-33 -34 -36 0
-33 -34 -35 0
-38 -39 -40 0
-37 -39 -40 0
-37 -38 -40 0
-37 -38 -39 0
-42 -43 -44 0
-41 -43 -44 0
-41 -42 -44 0
-41 -42 -43 0
-46 -47 -48 0
-45 -47 -48 0
-45 -46 -48 0
-45 -46 -47 0
-50 -51 -52 0
-49 -51 -52 0
-49 -50 -52 0
-49 -50 -51 0
-54 -55 -56 0
-53 -55 -56 0
-53 -54 -56 0
-53 -54 -55 0
-58 -59 -60 0
-57 -59 -60 0
-57 -58 -60 0
-57 -58 -59 0
-62 -63 -64 0
-61 -63 -64 0
-61 -62 -64 0
-61 -62 -63 0
-66 -67 -68 0
-65 -67 -68 0
-65 -66 -68 0
-65 -66 -67 0
-70 -71 -72 0
-69 -71 -72 0
-69 -70 -72 0
-69 -70 -71 0
-74 -75 -76 0
-73 -75 -76 0
-73 -74 -76 0
-73 -74 -75 0
-78 -79 -80 0
-77 -79 -80 0
-77 -78 -80 0
-77 -78 -79 0
-82 -83 -84 0
-81 -83 -84 0
-81 -82 -84 0
-81 -82 -83 0
-86 -87 -88 0
-85 -87 -88 0
-85 -86 -88 0
-85 -86 -87 0
-90 -91 -92 0
-89 -91 -92 0
-89 -90 -92 0
-89 -90 -91 0
-94 -95 -96 0
-93 -95 -96 0
-93 -94 -96 0
-93 -94 -95 0
-98 -99 -100 0
-97 -99 -100 0
-97 -98 -100 0
-97 -98 -99 0
-102 -103 -104 0
-101 -103 -104 0
-101 -102 -104 0
-101 -102 -103 0
-105 -106 -107 0
-105 -106 -108 0
-105 -106 -109 0
-105 -107 -108 0
-105 -107 -109 0
-105 -108 -109 0
-106 -107 -108 0
-106 -107 -109 0
-106 -108 -109 0
-107 -108 -109 0
82 3 94 0
24 3 94 0
24 82 94 0
24 82 3 0
8 98 11 0
95 98 11 0
95 8 11 0
95 8 98 0
103 72 52 0
31 72 52 0
31 103 52 0
31 103 72 0
80 48 104 0
86 48 104 0
86 80 104 0
86 80 48 0
23 57 62 0
101 57 62 0
101 23 62 0
101 23 57 0
75 17 27 0
34 17 27 0
34 75 27 0
34 75 17 0
69 35 85 0
21 35 85 0
21 69 85 0
21 69 35 0
66 87 30 0
93 87 30 0
93 66 30 0
93 66 87 0
49 61 100 0
41 61 100 0
41 49 100 0
41 49 61 0
28 65 37 0
97 65 37 0
97 28 37 0
97 28 65 0
2 47 64 0
56 47 64 0
56 2 64 0
56 2 47 0
109 63 12 0
26 63 12 0
26 109 12 0
26 109 63 0
42 73 9 0
14 73 9 0
14 42 9 0
14 42 73 0
70 55 60 0
77 55 60 0
77 70 60 0
77 70 55 0
76 102 108 0
5 102 108 0
5 76 108 0
5 76 102 0
79 84 44 0
36 84 44 0
36 79 44 0
36 79 84 0
16 88 99 0
18 88 99 0
18 16 99 0
18 16 88 0
40 43 29 0
107 43 29 0
107 40 29 0
107 40 43 0
15 71 4 0
106 71 4 0
106 15 4 0
106 15 71 0
78 68 13 0
50 68 13 0
50 78 13 0
50 78 68 0
1 38 74 0
91 38 74 0
91 1 74 0
91 1 38 0
7 19 39 0
22 19 39 0
22 7 39 0
22 7 19 0
83 25 6 0
53 25 6 0
53 83 6 0
53 83 25 0
10 58 46 0
81 58 46 0
81 10 46 0
81 10 58 0
67 90 59 0
20 90 59 0
20 67 59 0
20 67 90 0
32 54 89 0
33 54 89 0
33 32 89 0
33 32 54 0
92 45 96 0
92 45 105 0
92 45 51 0
92 96 105 0
92 96 51 0
92 105 51 0
45 96 105 0
45 96 51 0
45 105 51 0
96 105 51 0
